% Auto-generated by scripts/generate_dzn.py
% problem_type   = polyominoes
% instance       = polyominoes_50
% source_json    = instances_json/0_low_blowup/polyominoes_50.json
% blowup         = 0.6428571428571429
% representation = NFA

mode = 1;

size = 6;
tiles = 4;
n_expressions = 4;
Q = 159;
S = 5;
q0 = [1, 1, 1, 1];
F = [{25}, {19}, {39}, {2}];
weights = [8, 6, 5, 6, 5, 6, 1, 4, 7, 10, 5, 1, 2, 2, 5, 8, 3, 9, 6, 6, 6, 9, 9, 5, 7, 10, 2, 3, 10, 3, 3, 6, 4, 3, 10, 8];
d_dfa = array3d(1..4, 1..159, 1..5, [
  % k = 1
    0, 0, 0, 0, 0,
    0, 0, 0, 0, 0,
    0, 0, 0, 0, 0,
    0, 0, 0, 0, 0,
    0, 0, 0, 0, 0,
    0, 0, 0, 0, 0,
    0, 0, 0, 0, 0,
    0, 0, 0, 0, 0,
    0, 0, 0, 0, 0,
    0, 0, 0, 0, 0,
    0, 0, 0, 0, 0,
    0, 0, 0, 0, 0,
    0, 0, 0, 0, 0,
    0, 0, 0, 0, 0,
    0, 0, 0, 0, 0,
    0, 0, 0, 0, 0,
    0, 0, 0, 0, 0,
    0, 0, 0, 0, 0,
    0, 0, 0, 0, 0,
    0, 0, 0, 0, 0,
    0, 0, 0, 0, 0,
    0, 0, 0, 0, 0,
    0, 0, 0, 0, 0,
    0, 0, 0, 0, 0,
    0, 0, 0, 0, 0,
    0, 0, 0, 0, 0,
    0, 0, 0, 0, 0,
    0, 0, 0, 0, 0,
    0, 0, 0, 0, 0,
    0, 0, 0, 0, 0,
    0, 0, 0, 0, 0,
    0, 0, 0, 0, 0,
    0, 0, 0, 0, 0,
    0, 0, 0, 0, 0,
    0, 0, 0, 0, 0,
    0, 0, 0, 0, 0,
    0, 0, 0, 0, 0,
    0, 0, 0, 0, 0,
    0, 0, 0, 0, 0,
    0, 0, 0, 0, 0,
    0, 0, 0, 0, 0,
    0, 0, 0, 0, 0,
    0, 0, 0, 0, 0,
    0, 0, 0, 0, 0,
    0, 0, 0, 0, 0,
    0, 0, 0, 0, 0,
    0, 0, 0, 0, 0,
    0, 0, 0, 0, 0,
    0, 0, 0, 0, 0,
    0, 0, 0, 0, 0,
    0, 0, 0, 0, 0,
    0, 0, 0, 0, 0,
    0, 0, 0, 0, 0,
    0, 0, 0, 0, 0,
    0, 0, 0, 0, 0,
    0, 0, 0, 0, 0,
    0, 0, 0, 0, 0,
    0, 0, 0, 0, 0,
    0, 0, 0, 0, 0,
    0, 0, 0, 0, 0,
    0, 0, 0, 0, 0,
    0, 0, 0, 0, 0,
    0, 0, 0, 0, 0,
    0, 0, 0, 0, 0,
    0, 0, 0, 0, 0,
    0, 0, 0, 0, 0,
    0, 0, 0, 0, 0,
    0, 0, 0, 0, 0,
    0, 0, 0, 0, 0,
    0, 0, 0, 0, 0,
    0, 0, 0, 0, 0,
    0, 0, 0, 0, 0,
    0, 0, 0, 0, 0,
    0, 0, 0, 0, 0,
    0, 0, 0, 0, 0,
    0, 0, 0, 0, 0,
    0, 0, 0, 0, 0,
    0, 0, 0, 0, 0,
    0, 0, 0, 0, 0,
    0, 0, 0, 0, 0,
    0, 0, 0, 0, 0,
    0, 0, 0, 0, 0,
    0, 0, 0, 0, 0,
    0, 0, 0, 0, 0,
    0, 0, 0, 0, 0,
    0, 0, 0, 0, 0,
    0, 0, 0, 0, 0,
    0, 0, 0, 0, 0,
    0, 0, 0, 0, 0,
    0, 0, 0, 0, 0,
    0, 0, 0, 0, 0,
    0, 0, 0, 0, 0,
    0, 0, 0, 0, 0,
    0, 0, 0, 0, 0,
    0, 0, 0, 0, 0,
    0, 0, 0, 0, 0,
    0, 0, 0, 0, 0,
    0, 0, 0, 0, 0,
    0, 0, 0, 0, 0,
    0, 0, 0, 0, 0,
    0, 0, 0, 0, 0,
    0, 0, 0, 0, 0,
    0, 0, 0, 0, 0,
    0, 0, 0, 0, 0,
    0, 0, 0, 0, 0,
    0, 0, 0, 0, 0,
    0, 0, 0, 0, 0,
    0, 0, 0, 0, 0,
    0, 0, 0, 0, 0,
    0, 0, 0, 0, 0,
    0, 0, 0, 0, 0,
    0, 0, 0, 0, 0,
    0, 0, 0, 0, 0,
    0, 0, 0, 0, 0,
    0, 0, 0, 0, 0,
    0, 0, 0, 0, 0,
    0, 0, 0, 0, 0,
    0, 0, 0, 0, 0,
    0, 0, 0, 0, 0,
    0, 0, 0, 0, 0,
    0, 0, 0, 0, 0,
    0, 0, 0, 0, 0,
    0, 0, 0, 0, 0,
    0, 0, 0, 0, 0,
    0, 0, 0, 0, 0,
    0, 0, 0, 0, 0,
    0, 0, 0, 0, 0,
    0, 0, 0, 0, 0,
    0, 0, 0, 0, 0,
    0, 0, 0, 0, 0,
    0, 0, 0, 0, 0,
    0, 0, 0, 0, 0,
    0, 0, 0, 0, 0,
    0, 0, 0, 0, 0,
    0, 0, 0, 0, 0,
    0, 0, 0, 0, 0,
    0, 0, 0, 0, 0,
    0, 0, 0, 0, 0,
    0, 0, 0, 0, 0,
    0, 0, 0, 0, 0,
    0, 0, 0, 0, 0,
    0, 0, 0, 0, 0,
    0, 0, 0, 0, 0,
    0, 0, 0, 0, 0,
    0, 0, 0, 0, 0,
    0, 0, 0, 0, 0,
    0, 0, 0, 0, 0,
    0, 0, 0, 0, 0,
    0, 0, 0, 0, 0,
    0, 0, 0, 0, 0,
    0, 0, 0, 0, 0,
    0, 0, 0, 0, 0,
    0, 0, 0, 0, 0,
    0, 0, 0, 0, 0,
    0, 0, 0, 0, 0,
    0, 0, 0, 0, 0,
    0, 0, 0, 0, 0,
    0, 0, 0, 0, 0,
    0, 0, 0, 0, 0,

  % k = 2
    0, 0, 0, 0, 0,
    0, 0, 0, 0, 0,
    0, 0, 0, 0, 0,
    0, 0, 0, 0, 0,
    0, 0, 0, 0, 0,
    0, 0, 0, 0, 0,
    0, 0, 0, 0, 0,
    0, 0, 0, 0, 0,
    0, 0, 0, 0, 0,
    0, 0, 0, 0, 0,
    0, 0, 0, 0, 0,
    0, 0, 0, 0, 0,
    0, 0, 0, 0, 0,
    0, 0, 0, 0, 0,
    0, 0, 0, 0, 0,
    0, 0, 0, 0, 0,
    0, 0, 0, 0, 0,
    0, 0, 0, 0, 0,
    0, 0, 0, 0, 0,
    0, 0, 0, 0, 0,
    0, 0, 0, 0, 0,
    0, 0, 0, 0, 0,
    0, 0, 0, 0, 0,
    0, 0, 0, 0, 0,
    0, 0, 0, 0, 0,
    0, 0, 0, 0, 0,
    0, 0, 0, 0, 0,
    0, 0, 0, 0, 0,
    0, 0, 0, 0, 0,
    0, 0, 0, 0, 0,
    0, 0, 0, 0, 0,
    0, 0, 0, 0, 0,
    0, 0, 0, 0, 0,
    0, 0, 0, 0, 0,
    0, 0, 0, 0, 0,
    0, 0, 0, 0, 0,
    0, 0, 0, 0, 0,
    0, 0, 0, 0, 0,
    0, 0, 0, 0, 0,
    0, 0, 0, 0, 0,
    0, 0, 0, 0, 0,
    0, 0, 0, 0, 0,
    0, 0, 0, 0, 0,
    0, 0, 0, 0, 0,
    0, 0, 0, 0, 0,
    0, 0, 0, 0, 0,
    0, 0, 0, 0, 0,
    0, 0, 0, 0, 0,
    0, 0, 0, 0, 0,
    0, 0, 0, 0, 0,
    0, 0, 0, 0, 0,
    0, 0, 0, 0, 0,
    0, 0, 0, 0, 0,
    0, 0, 0, 0, 0,
    0, 0, 0, 0, 0,
    0, 0, 0, 0, 0,
    0, 0, 0, 0, 0,
    0, 0, 0, 0, 0,
    0, 0, 0, 0, 0,
    0, 0, 0, 0, 0,
    0, 0, 0, 0, 0,
    0, 0, 0, 0, 0,
    0, 0, 0, 0, 0,
    0, 0, 0, 0, 0,
    0, 0, 0, 0, 0,
    0, 0, 0, 0, 0,
    0, 0, 0, 0, 0,
    0, 0, 0, 0, 0,
    0, 0, 0, 0, 0,
    0, 0, 0, 0, 0,
    0, 0, 0, 0, 0,
    0, 0, 0, 0, 0,
    0, 0, 0, 0, 0,
    0, 0, 0, 0, 0,
    0, 0, 0, 0, 0,
    0, 0, 0, 0, 0,
    0, 0, 0, 0, 0,
    0, 0, 0, 0, 0,
    0, 0, 0, 0, 0,
    0, 0, 0, 0, 0,
    0, 0, 0, 0, 0,
    0, 0, 0, 0, 0,
    0, 0, 0, 0, 0,
    0, 0, 0, 0, 0,
    0, 0, 0, 0, 0,
    0, 0, 0, 0, 0,
    0, 0, 0, 0, 0,
    0, 0, 0, 0, 0,
    0, 0, 0, 0, 0,
    0, 0, 0, 0, 0,
    0, 0, 0, 0, 0,
    0, 0, 0, 0, 0,
    0, 0, 0, 0, 0,
    0, 0, 0, 0, 0,
    0, 0, 0, 0, 0,
    0, 0, 0, 0, 0,
    0, 0, 0, 0, 0,
    0, 0, 0, 0, 0,
    0, 0, 0, 0, 0,
    0, 0, 0, 0, 0,
    0, 0, 0, 0, 0,
    0, 0, 0, 0, 0,
    0, 0, 0, 0, 0,
    0, 0, 0, 0, 0,
    0, 0, 0, 0, 0,
    0, 0, 0, 0, 0,
    0, 0, 0, 0, 0,
    0, 0, 0, 0, 0,
    0, 0, 0, 0, 0,
    0, 0, 0, 0, 0,
    0, 0, 0, 0, 0,
    0, 0, 0, 0, 0,
    0, 0, 0, 0, 0,
    0, 0, 0, 0, 0,
    0, 0, 0, 0, 0,
    0, 0, 0, 0, 0,
    0, 0, 0, 0, 0,
    0, 0, 0, 0, 0,
    0, 0, 0, 0, 0,
    0, 0, 0, 0, 0,
    0, 0, 0, 0, 0,
    0, 0, 0, 0, 0,
    0, 0, 0, 0, 0,
    0, 0, 0, 0, 0,
    0, 0, 0, 0, 0,
    0, 0, 0, 0, 0,
    0, 0, 0, 0, 0,
    0, 0, 0, 0, 0,
    0, 0, 0, 0, 0,
    0, 0, 0, 0, 0,
    0, 0, 0, 0, 0,
    0, 0, 0, 0, 0,
    0, 0, 0, 0, 0,
    0, 0, 0, 0, 0,
    0, 0, 0, 0, 0,
    0, 0, 0, 0, 0,
    0, 0, 0, 0, 0,
    0, 0, 0, 0, 0,
    0, 0, 0, 0, 0,
    0, 0, 0, 0, 0,
    0, 0, 0, 0, 0,
    0, 0, 0, 0, 0,
    0, 0, 0, 0, 0,
    0, 0, 0, 0, 0,
    0, 0, 0, 0, 0,
    0, 0, 0, 0, 0,
    0, 0, 0, 0, 0,
    0, 0, 0, 0, 0,
    0, 0, 0, 0, 0,
    0, 0, 0, 0, 0,
    0, 0, 0, 0, 0,
    0, 0, 0, 0, 0,
    0, 0, 0, 0, 0,
    0, 0, 0, 0, 0,
    0, 0, 0, 0, 0,
    0, 0, 0, 0, 0,
    0, 0, 0, 0, 0,
    0, 0, 0, 0, 0,
    0, 0, 0, 0, 0,

  % k = 3
    0, 0, 0, 0, 0,
    0, 0, 0, 0, 0,
    0, 0, 0, 0, 0,
    0, 0, 0, 0, 0,
    0, 0, 0, 0, 0,
    0, 0, 0, 0, 0,
    0, 0, 0, 0, 0,
    0, 0, 0, 0, 0,
    0, 0, 0, 0, 0,
    0, 0, 0, 0, 0,
    0, 0, 0, 0, 0,
    0, 0, 0, 0, 0,
    0, 0, 0, 0, 0,
    0, 0, 0, 0, 0,
    0, 0, 0, 0, 0,
    0, 0, 0, 0, 0,
    0, 0, 0, 0, 0,
    0, 0, 0, 0, 0,
    0, 0, 0, 0, 0,
    0, 0, 0, 0, 0,
    0, 0, 0, 0, 0,
    0, 0, 0, 0, 0,
    0, 0, 0, 0, 0,
    0, 0, 0, 0, 0,
    0, 0, 0, 0, 0,
    0, 0, 0, 0, 0,
    0, 0, 0, 0, 0,
    0, 0, 0, 0, 0,
    0, 0, 0, 0, 0,
    0, 0, 0, 0, 0,
    0, 0, 0, 0, 0,
    0, 0, 0, 0, 0,
    0, 0, 0, 0, 0,
    0, 0, 0, 0, 0,
    0, 0, 0, 0, 0,
    0, 0, 0, 0, 0,
    0, 0, 0, 0, 0,
    0, 0, 0, 0, 0,
    0, 0, 0, 0, 0,
    0, 0, 0, 0, 0,
    0, 0, 0, 0, 0,
    0, 0, 0, 0, 0,
    0, 0, 0, 0, 0,
    0, 0, 0, 0, 0,
    0, 0, 0, 0, 0,
    0, 0, 0, 0, 0,
    0, 0, 0, 0, 0,
    0, 0, 0, 0, 0,
    0, 0, 0, 0, 0,
    0, 0, 0, 0, 0,
    0, 0, 0, 0, 0,
    0, 0, 0, 0, 0,
    0, 0, 0, 0, 0,
    0, 0, 0, 0, 0,
    0, 0, 0, 0, 0,
    0, 0, 0, 0, 0,
    0, 0, 0, 0, 0,
    0, 0, 0, 0, 0,
    0, 0, 0, 0, 0,
    0, 0, 0, 0, 0,
    0, 0, 0, 0, 0,
    0, 0, 0, 0, 0,
    0, 0, 0, 0, 0,
    0, 0, 0, 0, 0,
    0, 0, 0, 0, 0,
    0, 0, 0, 0, 0,
    0, 0, 0, 0, 0,
    0, 0, 0, 0, 0,
    0, 0, 0, 0, 0,
    0, 0, 0, 0, 0,
    0, 0, 0, 0, 0,
    0, 0, 0, 0, 0,
    0, 0, 0, 0, 0,
    0, 0, 0, 0, 0,
    0, 0, 0, 0, 0,
    0, 0, 0, 0, 0,
    0, 0, 0, 0, 0,
    0, 0, 0, 0, 0,
    0, 0, 0, 0, 0,
    0, 0, 0, 0, 0,
    0, 0, 0, 0, 0,
    0, 0, 0, 0, 0,
    0, 0, 0, 0, 0,
    0, 0, 0, 0, 0,
    0, 0, 0, 0, 0,
    0, 0, 0, 0, 0,
    0, 0, 0, 0, 0,
    0, 0, 0, 0, 0,
    0, 0, 0, 0, 0,
    0, 0, 0, 0, 0,
    0, 0, 0, 0, 0,
    0, 0, 0, 0, 0,
    0, 0, 0, 0, 0,
    0, 0, 0, 0, 0,
    0, 0, 0, 0, 0,
    0, 0, 0, 0, 0,
    0, 0, 0, 0, 0,
    0, 0, 0, 0, 0,
    0, 0, 0, 0, 0,
    0, 0, 0, 0, 0,
    0, 0, 0, 0, 0,
    0, 0, 0, 0, 0,
    0, 0, 0, 0, 0,
    0, 0, 0, 0, 0,
    0, 0, 0, 0, 0,
    0, 0, 0, 0, 0,
    0, 0, 0, 0, 0,
    0, 0, 0, 0, 0,
    0, 0, 0, 0, 0,
    0, 0, 0, 0, 0,
    0, 0, 0, 0, 0,
    0, 0, 0, 0, 0,
    0, 0, 0, 0, 0,
    0, 0, 0, 0, 0,
    0, 0, 0, 0, 0,
    0, 0, 0, 0, 0,
    0, 0, 0, 0, 0,
    0, 0, 0, 0, 0,
    0, 0, 0, 0, 0,
    0, 0, 0, 0, 0,
    0, 0, 0, 0, 0,
    0, 0, 0, 0, 0,
    0, 0, 0, 0, 0,
    0, 0, 0, 0, 0,
    0, 0, 0, 0, 0,
    0, 0, 0, 0, 0,
    0, 0, 0, 0, 0,
    0, 0, 0, 0, 0,
    0, 0, 0, 0, 0,
    0, 0, 0, 0, 0,
    0, 0, 0, 0, 0,
    0, 0, 0, 0, 0,
    0, 0, 0, 0, 0,
    0, 0, 0, 0, 0,
    0, 0, 0, 0, 0,
    0, 0, 0, 0, 0,
    0, 0, 0, 0, 0,
    0, 0, 0, 0, 0,
    0, 0, 0, 0, 0,
    0, 0, 0, 0, 0,
    0, 0, 0, 0, 0,
    0, 0, 0, 0, 0,
    0, 0, 0, 0, 0,
    0, 0, 0, 0, 0,
    0, 0, 0, 0, 0,
    0, 0, 0, 0, 0,
    0, 0, 0, 0, 0,
    0, 0, 0, 0, 0,
    0, 0, 0, 0, 0,
    0, 0, 0, 0, 0,
    0, 0, 0, 0, 0,
    0, 0, 0, 0, 0,
    0, 0, 0, 0, 0,
    0, 0, 0, 0, 0,
    0, 0, 0, 0, 0,
    0, 0, 0, 0, 0,
    0, 0, 0, 0, 0,
    0, 0, 0, 0, 0,
    0, 0, 0, 0, 0,

  % k = 4
    0, 0, 0, 0, 0,
    0, 0, 0, 0, 0,
    0, 0, 0, 0, 0,
    0, 0, 0, 0, 0,
    0, 0, 0, 0, 0,
    0, 0, 0, 0, 0,
    0, 0, 0, 0, 0,
    0, 0, 0, 0, 0,
    0, 0, 0, 0, 0,
    0, 0, 0, 0, 0,
    0, 0, 0, 0, 0,
    0, 0, 0, 0, 0,
    0, 0, 0, 0, 0,
    0, 0, 0, 0, 0,
    0, 0, 0, 0, 0,
    0, 0, 0, 0, 0,
    0, 0, 0, 0, 0,
    0, 0, 0, 0, 0,
    0, 0, 0, 0, 0,
    0, 0, 0, 0, 0,
    0, 0, 0, 0, 0,
    0, 0, 0, 0, 0,
    0, 0, 0, 0, 0,
    0, 0, 0, 0, 0,
    0, 0, 0, 0, 0,
    0, 0, 0, 0, 0,
    0, 0, 0, 0, 0,
    0, 0, 0, 0, 0,
    0, 0, 0, 0, 0,
    0, 0, 0, 0, 0,
    0, 0, 0, 0, 0,
    0, 0, 0, 0, 0,
    0, 0, 0, 0, 0,
    0, 0, 0, 0, 0,
    0, 0, 0, 0, 0,
    0, 0, 0, 0, 0,
    0, 0, 0, 0, 0,
    0, 0, 0, 0, 0,
    0, 0, 0, 0, 0,
    0, 0, 0, 0, 0,
    0, 0, 0, 0, 0,
    0, 0, 0, 0, 0,
    0, 0, 0, 0, 0,
    0, 0, 0, 0, 0,
    0, 0, 0, 0, 0,
    0, 0, 0, 0, 0,
    0, 0, 0, 0, 0,
    0, 0, 0, 0, 0,
    0, 0, 0, 0, 0,
    0, 0, 0, 0, 0,
    0, 0, 0, 0, 0,
    0, 0, 0, 0, 0,
    0, 0, 0, 0, 0,
    0, 0, 0, 0, 0,
    0, 0, 0, 0, 0,
    0, 0, 0, 0, 0,
    0, 0, 0, 0, 0,
    0, 0, 0, 0, 0,
    0, 0, 0, 0, 0,
    0, 0, 0, 0, 0,
    0, 0, 0, 0, 0,
    0, 0, 0, 0, 0,
    0, 0, 0, 0, 0,
    0, 0, 0, 0, 0,
    0, 0, 0, 0, 0,
    0, 0, 0, 0, 0,
    0, 0, 0, 0, 0,
    0, 0, 0, 0, 0,
    0, 0, 0, 0, 0,
    0, 0, 0, 0, 0,
    0, 0, 0, 0, 0,
    0, 0, 0, 0, 0,
    0, 0, 0, 0, 0,
    0, 0, 0, 0, 0,
    0, 0, 0, 0, 0,
    0, 0, 0, 0, 0,
    0, 0, 0, 0, 0,
    0, 0, 0, 0, 0,
    0, 0, 0, 0, 0,
    0, 0, 0, 0, 0,
    0, 0, 0, 0, 0,
    0, 0, 0, 0, 0,
    0, 0, 0, 0, 0,
    0, 0, 0, 0, 0,
    0, 0, 0, 0, 0,
    0, 0, 0, 0, 0,
    0, 0, 0, 0, 0,
    0, 0, 0, 0, 0,
    0, 0, 0, 0, 0,
    0, 0, 0, 0, 0,
    0, 0, 0, 0, 0,
    0, 0, 0, 0, 0,
    0, 0, 0, 0, 0,
    0, 0, 0, 0, 0,
    0, 0, 0, 0, 0,
    0, 0, 0, 0, 0,
    0, 0, 0, 0, 0,
    0, 0, 0, 0, 0,
    0, 0, 0, 0, 0,
    0, 0, 0, 0, 0,
    0, 0, 0, 0, 0,
    0, 0, 0, 0, 0,
    0, 0, 0, 0, 0,
    0, 0, 0, 0, 0,
    0, 0, 0, 0, 0,
    0, 0, 0, 0, 0,
    0, 0, 0, 0, 0,
    0, 0, 0, 0, 0,
    0, 0, 0, 0, 0,
    0, 0, 0, 0, 0,
    0, 0, 0, 0, 0,
    0, 0, 0, 0, 0,
    0, 0, 0, 0, 0,
    0, 0, 0, 0, 0,
    0, 0, 0, 0, 0,
    0, 0, 0, 0, 0,
    0, 0, 0, 0, 0,
    0, 0, 0, 0, 0,
    0, 0, 0, 0, 0,
    0, 0, 0, 0, 0,
    0, 0, 0, 0, 0,
    0, 0, 0, 0, 0,
    0, 0, 0, 0, 0,
    0, 0, 0, 0, 0,
    0, 0, 0, 0, 0,
    0, 0, 0, 0, 0,
    0, 0, 0, 0, 0,
    0, 0, 0, 0, 0,
    0, 0, 0, 0, 0,
    0, 0, 0, 0, 0,
    0, 0, 0, 0, 0,
    0, 0, 0, 0, 0,
    0, 0, 0, 0, 0,
    0, 0, 0, 0, 0,
    0, 0, 0, 0, 0,
    0, 0, 0, 0, 0,
    0, 0, 0, 0, 0,
    0, 0, 0, 0, 0,
    0, 0, 0, 0, 0,
    0, 0, 0, 0, 0,
    0, 0, 0, 0, 0,
    0, 0, 0, 0, 0,
    0, 0, 0, 0, 0,
    0, 0, 0, 0, 0,
    0, 0, 0, 0, 0,
    0, 0, 0, 0, 0,
    0, 0, 0, 0, 0,
    0, 0, 0, 0, 0,
    0, 0, 0, 0, 0,
    0, 0, 0, 0, 0,
    0, 0, 0, 0, 0,
    0, 0, 0, 0, 0,
    0, 0, 0, 0, 0,
    0, 0, 0, 0, 0,
    0, 0, 0, 0, 0,
    0, 0, 0, 0, 0,
    0, 0, 0, 0, 0,
    0, 0, 0, 0, 0,
    0, 0, 0, 0, 0
]);
d_nfa = array3d(1..4, 1..159, 1..5, [
  % k = 1
    {3, 9, 27, 38, 60, 75, 85, 102}, {2, 26, 37, 59, 74, 83, 84, 101}, {2, 26, 37, 59, 74, 83, 84, 101}, {2, 26, 37, 59, 74, 83, 84, 101}, {2, 26, 37, 59, 74, 83, 84, 101},
    {3}, {2}, {2}, {2}, {2},
    {}, {4}, {4}, {4}, {4},
    {}, {5}, {5}, {5}, {5},
    {}, {6}, {6}, {6}, {6},
    {}, {7}, {7}, {7}, {7},
    {}, {8}, {8}, {8}, {8},
    {}, {9}, {9}, {9}, {9},
    {10}, {}, {}, {}, {},
    {11}, {}, {}, {}, {},
    {12}, {}, {}, {}, {},
    {}, {13}, {13}, {13}, {13},
    {}, {14}, {14}, {14}, {14},
    {}, {15}, {15}, {15}, {15},
    {}, {16}, {16}, {16}, {16},
    {17}, {}, {}, {}, {},
    {18}, {}, {}, {}, {},
    {19}, {}, {}, {}, {},
    {}, {20}, {20}, {20}, {20},
    {}, {21}, {21}, {21}, {21},
    {}, {22}, {22}, {22}, {22},
    {}, {23}, {23}, {23}, {23},
    {24}, {}, {}, {}, {},
    {25}, {}, {}, {}, {},
    {}, {25}, {25}, {25}, {25},
    {27}, {26}, {26}, {26}, {26},
    {28}, {}, {}, {}, {},
    {29}, {}, {}, {}, {},
    {30}, {}, {}, {}, {},
    {}, {31}, {31}, {31}, {31},
    {}, {32}, {32}, {32}, {32},
    {}, {33}, {33}, {33}, {33},
    {34}, {}, {}, {}, {},
    {35}, {}, {}, {}, {},
    {36}, {}, {}, {}, {},
    {}, {19}, {19}, {19}, {19},
    {38}, {37}, {37}, {37}, {37},
    {39}, {}, {}, {}, {},
    {}, {40}, {40}, {40}, {40},
    {}, {41}, {41}, {41}, {41},
    {}, {42}, {42}, {42}, {42},
    {}, {43}, {43}, {43}, {43},
    {44}, {}, {}, {}, {},
    {45}, {}, {}, {}, {},
    {46}, {}, {}, {}, {},
    {}, {47}, {47}, {47}, {47},
    {}, {48}, {48}, {48}, {48},
    {}, {49}, {49}, {49}, {49},
    {}, {50}, {50}, {50}, {50},
    {51}, {}, {}, {}, {},
    {52}, {}, {}, {}, {},
    {53}, {}, {}, {}, {},
    {}, {54}, {54}, {54}, {54},
    {}, {55}, {55}, {55}, {55},
    {}, {56}, {56}, {56}, {56},
    {}, {57}, {57}, {57}, {57},
    {}, {58}, {58}, {58}, {58},
    {}, {24}, {24}, {24}, {24},
    {60}, {59}, {59}, {59}, {59},
    {61}, {}, {}, {}, {},
    {}, {62}, {62}, {62}, {62},
    {}, {63}, {63}, {63}, {63},
    {}, {64}, {64}, {64}, {64},
    {}, {65}, {65}, {65}, {65},
    {}, {66}, {66}, {66}, {66},
    {67}, {}, {}, {}, {},
    {68}, {}, {}, {}, {},
    {69}, {}, {}, {}, {},
    {}, {70}, {70}, {70}, {70},
    {}, {71}, {71}, {71}, {71},
    {}, {72}, {72}, {72}, {72},
    {73}, {}, {}, {}, {},
    {23}, {}, {}, {}, {},
    {75}, {74}, {74}, {74}, {74},
    {}, {76}, {76}, {76}, {76},
    {}, {77}, {77}, {77}, {77},
    {}, {78}, {78}, {78}, {78},
    {}, {79}, {79}, {79}, {79},
    {80}, {}, {}, {}, {},
    {81}, {}, {}, {}, {},
    {82}, {}, {}, {}, {},
    {}, {30}, {30}, {30}, {30},
    {9}, {83}, {83}, {83}, {83},
    {85}, {84}, {84}, {84}, {84},
    {86}, {}, {}, {}, {},
    {}, {87}, {87}, {87}, {87},
    {}, {88}, {88}, {88}, {88},
    {}, {89}, {89}, {89}, {89},
    {}, {90}, {90}, {90}, {90},
    {}, {91}, {91}, {91}, {91},
    {92}, {}, {}, {}, {},
    {93}, {}, {}, {}, {},
    {94}, {}, {}, {}, {},
    {}, {95}, {95}, {95}, {95},
    {}, {96}, {96}, {96}, {96},
    {}, {97}, {97}, {97}, {97},
    {}, {98}, {98}, {98}, {98},
    {99}, {}, {}, {}, {},
    {100}, {}, {}, {}, {},
    {55}, {}, {}, {}, {},
    {102}, {101}, {101}, {101}, {101},
    {103}, {}, {}, {}, {},
    {}, {104}, {104}, {104}, {104},
    {}, {105}, {105}, {105}, {105},
    {}, {106}, {106}, {106}, {106},
    {}, {107}, {107}, {107}, {107},
    {108}, {}, {}, {}, {},
    {109}, {}, {}, {}, {},
    {110}, {}, {}, {}, {},
    {}, {69}, {69}, {69}, {69},
    {}, {}, {}, {}, {},
    {}, {}, {}, {}, {},
    {}, {}, {}, {}, {},
    {}, {}, {}, {}, {},
    {}, {}, {}, {}, {},
    {}, {}, {}, {}, {},
    {}, {}, {}, {}, {},
    {}, {}, {}, {}, {},
    {}, {}, {}, {}, {},
    {}, {}, {}, {}, {},
    {}, {}, {}, {}, {},
    {}, {}, {}, {}, {},
    {}, {}, {}, {}, {},
    {}, {}, {}, {}, {},
    {}, {}, {}, {}, {},
    {}, {}, {}, {}, {},
    {}, {}, {}, {}, {},
    {}, {}, {}, {}, {},
    {}, {}, {}, {}, {},
    {}, {}, {}, {}, {},
    {}, {}, {}, {}, {},
    {}, {}, {}, {}, {},
    {}, {}, {}, {}, {},
    {}, {}, {}, {}, {},
    {}, {}, {}, {}, {},
    {}, {}, {}, {}, {},
    {}, {}, {}, {}, {},
    {}, {}, {}, {}, {},
    {}, {}, {}, {}, {},
    {}, {}, {}, {}, {},
    {}, {}, {}, {}, {},
    {}, {}, {}, {}, {},
    {}, {}, {}, {}, {},
    {}, {}, {}, {}, {},
    {}, {}, {}, {}, {},
    {}, {}, {}, {}, {},
    {}, {}, {}, {}, {},
    {}, {}, {}, {}, {},
    {}, {}, {}, {}, {},
    {}, {}, {}, {}, {},
    {}, {}, {}, {}, {},
    {}, {}, {}, {}, {},
    {}, {}, {}, {}, {},
    {}, {}, {}, {}, {},
    {}, {}, {}, {}, {},
    {}, {}, {}, {}, {},
    {}, {}, {}, {}, {},
    {}, {}, {}, {}, {},
    {}, {}, {}, {}, {},

  % k = 2
    {2, 20, 37, 52}, {3, 21, 38, 53}, {2, 20, 37, 52}, {2, 20, 37, 52}, {2, 20, 37, 52},
    {2}, {3}, {2}, {2}, {2},
    {}, {4}, {}, {}, {},
    {}, {5}, {}, {}, {},
    {}, {6}, {}, {}, {},
    {7}, {}, {7}, {7}, {7},
    {8}, {}, {8}, {8}, {8},
    {9}, {}, {9}, {9}, {9},
    {}, {10}, {}, {}, {},
    {}, {11}, {}, {}, {},
    {}, {12}, {}, {}, {},
    {}, {13}, {}, {}, {},
    {14}, {}, {14}, {14}, {14},
    {15}, {}, {15}, {15}, {15},
    {16}, {}, {16}, {16}, {16},
    {17}, {}, {17}, {17}, {17},
    {}, {18}, {}, {}, {},
    {}, {19}, {}, {}, {},
    {19}, {}, {19}, {19}, {19},
    {20}, {21}, {20}, {20}, {20},
    {}, {22}, {}, {}, {},
    {23}, {}, {23}, {23}, {23},
    {24}, {}, {24}, {24}, {24},
    {25}, {}, {25}, {25}, {25},
    {26}, {}, {26}, {26}, {26},
    {}, {27}, {}, {}, {},
    {}, {28}, {}, {}, {},
    {}, {29}, {}, {}, {},
    {30}, {}, {30}, {30}, {30},
    {31}, {}, {31}, {31}, {31},
    {32}, {}, {32}, {32}, {32},
    {33}, {}, {33}, {33}, {33},
    {}, {34}, {}, {}, {},
    {}, {35}, {}, {}, {},
    {}, {36}, {}, {}, {},
    {13}, {}, {13}, {13}, {13},
    {37}, {38}, {37}, {37}, {37},
    {}, {39}, {}, {}, {},
    {40}, {}, {40}, {40}, {40},
    {41}, {}, {41}, {41}, {41},
    {42}, {}, {42}, {42}, {42},
    {43}, {}, {43}, {43}, {43},
    {}, {44}, {}, {}, {},
    {}, {45}, {}, {}, {},
    {}, {46}, {}, {}, {},
    {}, {47}, {}, {}, {},
    {48}, {}, {48}, {48}, {48},
    {49}, {}, {49}, {49}, {49},
    {50}, {}, {50}, {50}, {50},
    {}, {51}, {}, {}, {},
    {}, {17}, {}, {}, {},
    {52}, {53}, {52}, {52}, {52},
    {}, {54}, {}, {}, {},
    {55}, {}, {55}, {55}, {55},
    {56}, {}, {56}, {56}, {56},
    {57}, {}, {57}, {57}, {57},
    {58}, {}, {58}, {58}, {58},
    {59}, {}, {59}, {59}, {59},
    {}, {60}, {}, {}, {},
    {}, {61}, {}, {}, {},
    {}, {62}, {}, {}, {},
    {63}, {}, {63}, {63}, {63},
    {64}, {}, {64}, {64}, {64},
    {65}, {}, {65}, {65}, {65},
    {10}, {}, {10}, {10}, {10},
    {}, {}, {}, {}, {},
    {}, {}, {}, {}, {},
    {}, {}, {}, {}, {},
    {}, {}, {}, {}, {},
    {}, {}, {}, {}, {},
    {}, {}, {}, {}, {},
    {}, {}, {}, {}, {},
    {}, {}, {}, {}, {},
    {}, {}, {}, {}, {},
    {}, {}, {}, {}, {},
    {}, {}, {}, {}, {},
    {}, {}, {}, {}, {},
    {}, {}, {}, {}, {},
    {}, {}, {}, {}, {},
    {}, {}, {}, {}, {},
    {}, {}, {}, {}, {},
    {}, {}, {}, {}, {},
    {}, {}, {}, {}, {},
    {}, {}, {}, {}, {},
    {}, {}, {}, {}, {},
    {}, {}, {}, {}, {},
    {}, {}, {}, {}, {},
    {}, {}, {}, {}, {},
    {}, {}, {}, {}, {},
    {}, {}, {}, {}, {},
    {}, {}, {}, {}, {},
    {}, {}, {}, {}, {},
    {}, {}, {}, {}, {},
    {}, {}, {}, {}, {},
    {}, {}, {}, {}, {},
    {}, {}, {}, {}, {},
    {}, {}, {}, {}, {},
    {}, {}, {}, {}, {},
    {}, {}, {}, {}, {},
    {}, {}, {}, {}, {},
    {}, {}, {}, {}, {},
    {}, {}, {}, {}, {},
    {}, {}, {}, {}, {},
    {}, {}, {}, {}, {},
    {}, {}, {}, {}, {},
    {}, {}, {}, {}, {},
    {}, {}, {}, {}, {},
    {}, {}, {}, {}, {},
    {}, {}, {}, {}, {},
    {}, {}, {}, {}, {},
    {}, {}, {}, {}, {},
    {}, {}, {}, {}, {},
    {}, {}, {}, {}, {},
    {}, {}, {}, {}, {},
    {}, {}, {}, {}, {},
    {}, {}, {}, {}, {},
    {}, {}, {}, {}, {},
    {}, {}, {}, {}, {},
    {}, {}, {}, {}, {},
    {}, {}, {}, {}, {},
    {}, {}, {}, {}, {},
    {}, {}, {}, {}, {},
    {}, {}, {}, {}, {},
    {}, {}, {}, {}, {},
    {}, {}, {}, {}, {},
    {}, {}, {}, {}, {},
    {}, {}, {}, {}, {},
    {}, {}, {}, {}, {},
    {}, {}, {}, {}, {},
    {}, {}, {}, {}, {},
    {}, {}, {}, {}, {},
    {}, {}, {}, {}, {},
    {}, {}, {}, {}, {},
    {}, {}, {}, {}, {},
    {}, {}, {}, {}, {},
    {}, {}, {}, {}, {},
    {}, {}, {}, {}, {},
    {}, {}, {}, {}, {},
    {}, {}, {}, {}, {},
    {}, {}, {}, {}, {},
    {}, {}, {}, {}, {},
    {}, {}, {}, {}, {},
    {}, {}, {}, {}, {},
    {}, {}, {}, {}, {},
    {}, {}, {}, {}, {},
    {}, {}, {}, {}, {},
    {}, {}, {}, {}, {},
    {}, {}, {}, {}, {},
    {}, {}, {}, {}, {},
    {}, {}, {}, {}, {},
    {}, {}, {}, {}, {},
    {}, {}, {}, {}, {},
    {}, {}, {}, {}, {},
    {}, {}, {}, {}, {},
    {}, {}, {}, {}, {},
    {}, {}, {}, {}, {},
    {}, {}, {}, {}, {},
    {}, {}, {}, {}, {},
    {}, {}, {}, {}, {},

  % k = 3
    {2, 40, 57, 92, 108, 118, 122, 147}, {2, 40, 57, 92, 108, 118, 122, 147}, {3, 41, 58, 93, 109, 119, 123, 148}, {2, 40, 57, 92, 108, 118, 122, 147}, {2, 40, 57, 92, 108, 118, 122, 147},
    {2}, {2}, {3}, {2}, {2},
    {}, {}, {4}, {}, {},
    {5}, {5}, {}, {5}, {5},
    {6}, {6}, {}, {6}, {6},
    {7}, {7}, {}, {7}, {7},
    {8}, {8}, {}, {8}, {8},
    {9}, {9}, {}, {9}, {9},
    {}, {}, {10}, {}, {},
    {}, {}, {11}, {}, {},
    {12}, {12}, {}, {12}, {12},
    {13}, {13}, {}, {13}, {13},
    {14}, {14}, {}, {14}, {14},
    {15}, {15}, {}, {15}, {15},
    {}, {}, {16}, {}, {},
    {}, {}, {17}, {}, {},
    {}, {}, {18}, {}, {},
    {19}, {19}, {}, {19}, {19},
    {20}, {20}, {}, {20}, {20},
    {21}, {21}, {}, {21}, {21},
    {22}, {22}, {}, {22}, {22},
    {}, {}, {23}, {}, {},
    {}, {}, {24}, {}, {},
    {}, {}, {25}, {}, {},
    {26}, {26}, {}, {26}, {26},
    {27}, {27}, {}, {27}, {27},
    {28}, {28}, {}, {28}, {28},
    {29}, {29}, {}, {29}, {29},
    {}, {}, {30}, {}, {},
    {}, {}, {31}, {}, {},
    {}, {}, {32}, {}, {},
    {33}, {33}, {}, {33}, {33},
    {34}, {34}, {}, {34}, {34},
    {35}, {35}, {}, {35}, {35},
    {36}, {36}, {}, {36}, {36},
    {}, {}, {37}, {}, {},
    {}, {}, {38}, {}, {},
    {}, {}, {39}, {}, {},
    {39}, {39}, {}, {39}, {39},
    {40}, {40}, {41}, {40}, {40},
    {}, {}, {42}, {}, {},
    {}, {}, {43}, {}, {},
    {}, {}, {44}, {}, {},
    {45}, {45}, {}, {45}, {45},
    {46}, {46}, {}, {46}, {46},
    {47}, {47}, {}, {47}, {47},
    {}, {}, {48}, {}, {},
    {}, {}, {49}, {}, {},
    {}, {}, {50}, {}, {},
    {}, {}, {51}, {}, {},
    {}, {}, {52}, {}, {},
    {}, {}, {53}, {}, {},
    {54}, {54}, {}, {54}, {54},
    {}, {}, {55}, {}, {},
    {}, {}, {56}, {}, {},
    {}, {}, {36}, {}, {},
    {57}, {57}, {58}, {57}, {57},
    {}, {}, {59}, {}, {},
    {}, {}, {60}, {}, {},
    {61}, {61}, {}, {61}, {61},
    {62}, {62}, {}, {62}, {62},
    {63}, {63}, {}, {63}, {63},
    {64}, {64}, {}, {64}, {64},
    {}, {}, {65}, {}, {},
    {}, {}, {66}, {}, {},
    {}, {}, {67}, {}, {},
    {68}, {68}, {}, {68}, {68},
    {69}, {69}, {}, {69}, {69},
    {70}, {70}, {}, {70}, {70},
    {71}, {71}, {}, {71}, {71},
    {}, {}, {72}, {}, {},
    {}, {}, {73}, {}, {},
    {}, {}, {74}, {}, {},
    {75}, {75}, {}, {75}, {75},
    {76}, {76}, {}, {76}, {76},
    {77}, {77}, {}, {77}, {77},
    {78}, {78}, {}, {78}, {78},
    {}, {}, {79}, {}, {},
    {}, {}, {80}, {}, {},
    {}, {}, {81}, {}, {},
    {82}, {82}, {}, {82}, {82},
    {83}, {83}, {}, {83}, {83},
    {84}, {84}, {}, {84}, {84},
    {85}, {85}, {}, {85}, {85},
    {}, {}, {86}, {}, {},
    {}, {}, {87}, {}, {},
    {88}, {88}, {}, {88}, {88},
    {89}, {89}, {}, {89}, {89},
    {90}, {90}, {}, {90}, {90},
    {91}, {91}, {}, {91}, {91},
    {37}, {37}, {}, {37}, {37},
    {92}, {92}, {93}, {92}, {92},
    {}, {}, {94}, {}, {},
    {}, {}, {95}, {}, {},
    {}, {}, {96}, {}, {},
    {}, {}, {97}, {}, {},
    {}, {}, {98}, {}, {},
    {99}, {99}, {}, {99}, {99},
    {}, {}, {100}, {}, {},
    {}, {}, {101}, {}, {},
    {}, {}, {102}, {}, {},
    {}, {}, {103}, {}, {},
    {}, {}, {104}, {}, {},
    {}, {}, {105}, {}, {},
    {106}, {106}, {}, {106}, {106},
    {107}, {107}, {}, {107}, {107},
    {56}, {56}, {}, {56}, {56},
    {108}, {108}, {109}, {108}, {108},
    {}, {}, {110}, {}, {},
    {111}, {111}, {}, {111}, {111},
    {112}, {112}, {}, {112}, {112},
    {113}, {113}, {}, {113}, {113},
    {114}, {114}, {}, {114}, {114},
    {115}, {115}, {}, {115}, {115},
    {}, {}, {116}, {}, {},
    {}, {}, {117}, {}, {},
    {11}, {11}, {}, {11}, {11},
    {118}, {118}, {119}, {118}, {118},
    {}, {}, {120}, {}, {},
    {}, {}, {121}, {}, {},
    {}, {}, {46}, {}, {},
    {122}, {122}, {123}, {122}, {122},
    {}, {}, {124}, {}, {},
    {}, {}, {125}, {}, {},
    {126}, {126}, {}, {126}, {126},
    {127}, {127}, {}, {127}, {127},
    {128}, {128}, {}, {128}, {128},
    {129}, {129}, {}, {129}, {129},
    {}, {}, {130}, {}, {},
    {}, {}, {131}, {}, {},
    {}, {}, {132}, {}, {},
    {133}, {133}, {}, {133}, {133},
    {134}, {134}, {}, {134}, {134},
    {135}, {135}, {}, {135}, {135},
    {136}, {136}, {}, {136}, {136},
    {}, {}, {137}, {}, {},
    {}, {}, {138}, {}, {},
    {}, {}, {139}, {}, {},
    {140}, {140}, {}, {140}, {140},
    {141}, {141}, {}, {141}, {141},
    {142}, {142}, {}, {142}, {142},
    {143}, {143}, {}, {143}, {143},
    {}, {}, {144}, {}, {},
    {}, {}, {145}, {}, {},
    {}, {}, {146}, {}, {},
    {81}, {81}, {}, {81}, {81},
    {147}, {147}, {148}, {147}, {147},
    {}, {}, {149}, {}, {},
    {}, {}, {150}, {}, {},
    {}, {}, {151}, {}, {},
    {}, {}, {152}, {}, {},
    {}, {}, {153}, {}, {},
    {154}, {154}, {}, {154}, {154},
    {}, {}, {155}, {}, {},
    {}, {}, {156}, {}, {},
    {}, {}, {157}, {}, {},
    {}, {}, {158}, {}, {},
    {}, {}, {159}, {}, {},
    {}, {}, {107}, {}, {},

  % k = 4
    {1}, {1}, {1}, {2}, {1},
    {2}, {2}, {2}, {}, {2},
    {}, {}, {}, {}, {},
    {}, {}, {}, {}, {},
    {}, {}, {}, {}, {},
    {}, {}, {}, {}, {},
    {}, {}, {}, {}, {},
    {}, {}, {}, {}, {},
    {}, {}, {}, {}, {},
    {}, {}, {}, {}, {},
    {}, {}, {}, {}, {},
    {}, {}, {}, {}, {},
    {}, {}, {}, {}, {},
    {}, {}, {}, {}, {},
    {}, {}, {}, {}, {},
    {}, {}, {}, {}, {},
    {}, {}, {}, {}, {},
    {}, {}, {}, {}, {},
    {}, {}, {}, {}, {},
    {}, {}, {}, {}, {},
    {}, {}, {}, {}, {},
    {}, {}, {}, {}, {},
    {}, {}, {}, {}, {},
    {}, {}, {}, {}, {},
    {}, {}, {}, {}, {},
    {}, {}, {}, {}, {},
    {}, {}, {}, {}, {},
    {}, {}, {}, {}, {},
    {}, {}, {}, {}, {},
    {}, {}, {}, {}, {},
    {}, {}, {}, {}, {},
    {}, {}, {}, {}, {},
    {}, {}, {}, {}, {},
    {}, {}, {}, {}, {},
    {}, {}, {}, {}, {},
    {}, {}, {}, {}, {},
    {}, {}, {}, {}, {},
    {}, {}, {}, {}, {},
    {}, {}, {}, {}, {},
    {}, {}, {}, {}, {},
    {}, {}, {}, {}, {},
    {}, {}, {}, {}, {},
    {}, {}, {}, {}, {},
    {}, {}, {}, {}, {},
    {}, {}, {}, {}, {},
    {}, {}, {}, {}, {},
    {}, {}, {}, {}, {},
    {}, {}, {}, {}, {},
    {}, {}, {}, {}, {},
    {}, {}, {}, {}, {},
    {}, {}, {}, {}, {},
    {}, {}, {}, {}, {},
    {}, {}, {}, {}, {},
    {}, {}, {}, {}, {},
    {}, {}, {}, {}, {},
    {}, {}, {}, {}, {},
    {}, {}, {}, {}, {},
    {}, {}, {}, {}, {},
    {}, {}, {}, {}, {},
    {}, {}, {}, {}, {},
    {}, {}, {}, {}, {},
    {}, {}, {}, {}, {},
    {}, {}, {}, {}, {},
    {}, {}, {}, {}, {},
    {}, {}, {}, {}, {},
    {}, {}, {}, {}, {},
    {}, {}, {}, {}, {},
    {}, {}, {}, {}, {},
    {}, {}, {}, {}, {},
    {}, {}, {}, {}, {},
    {}, {}, {}, {}, {},
    {}, {}, {}, {}, {},
    {}, {}, {}, {}, {},
    {}, {}, {}, {}, {},
    {}, {}, {}, {}, {},
    {}, {}, {}, {}, {},
    {}, {}, {}, {}, {},
    {}, {}, {}, {}, {},
    {}, {}, {}, {}, {},
    {}, {}, {}, {}, {},
    {}, {}, {}, {}, {},
    {}, {}, {}, {}, {},
    {}, {}, {}, {}, {},
    {}, {}, {}, {}, {},
    {}, {}, {}, {}, {},
    {}, {}, {}, {}, {},
    {}, {}, {}, {}, {},
    {}, {}, {}, {}, {},
    {}, {}, {}, {}, {},
    {}, {}, {}, {}, {},
    {}, {}, {}, {}, {},
    {}, {}, {}, {}, {},
    {}, {}, {}, {}, {},
    {}, {}, {}, {}, {},
    {}, {}, {}, {}, {},
    {}, {}, {}, {}, {},
    {}, {}, {}, {}, {},
    {}, {}, {}, {}, {},
    {}, {}, {}, {}, {},
    {}, {}, {}, {}, {},
    {}, {}, {}, {}, {},
    {}, {}, {}, {}, {},
    {}, {}, {}, {}, {},
    {}, {}, {}, {}, {},
    {}, {}, {}, {}, {},
    {}, {}, {}, {}, {},
    {}, {}, {}, {}, {},
    {}, {}, {}, {}, {},
    {}, {}, {}, {}, {},
    {}, {}, {}, {}, {},
    {}, {}, {}, {}, {},
    {}, {}, {}, {}, {},
    {}, {}, {}, {}, {},
    {}, {}, {}, {}, {},
    {}, {}, {}, {}, {},
    {}, {}, {}, {}, {},
    {}, {}, {}, {}, {},
    {}, {}, {}, {}, {},
    {}, {}, {}, {}, {},
    {}, {}, {}, {}, {},
    {}, {}, {}, {}, {},
    {}, {}, {}, {}, {},
    {}, {}, {}, {}, {},
    {}, {}, {}, {}, {},
    {}, {}, {}, {}, {},
    {}, {}, {}, {}, {},
    {}, {}, {}, {}, {},
    {}, {}, {}, {}, {},
    {}, {}, {}, {}, {},
    {}, {}, {}, {}, {},
    {}, {}, {}, {}, {},
    {}, {}, {}, {}, {},
    {}, {}, {}, {}, {},
    {}, {}, {}, {}, {},
    {}, {}, {}, {}, {},
    {}, {}, {}, {}, {},
    {}, {}, {}, {}, {},
    {}, {}, {}, {}, {},
    {}, {}, {}, {}, {},
    {}, {}, {}, {}, {},
    {}, {}, {}, {}, {},
    {}, {}, {}, {}, {},
    {}, {}, {}, {}, {},
    {}, {}, {}, {}, {},
    {}, {}, {}, {}, {},
    {}, {}, {}, {}, {},
    {}, {}, {}, {}, {},
    {}, {}, {}, {}, {},
    {}, {}, {}, {}, {},
    {}, {}, {}, {}, {},
    {}, {}, {}, {}, {},
    {}, {}, {}, {}, {},
    {}, {}, {}, {}, {},
    {}, {}, {}, {}, {},
    {}, {}, {}, {}, {},
    {}, {}, {}, {}, {},
    {}, {}, {}, {}, {},
    {}, {}, {}, {}, {},
    {}, {}, {}, {}, {}
]);
